c turning on binary mode checking
c parsing input formula with 259840 variables and 1039924 clauses
c finished parsing, read 2940871 bytes from proof file
c detected empty clause; start verification via backward checking
c 3254 of 1039924 clauses in core                            
c 1037 of 117619 lemmas in core using 31539 resolution steps
c 0 RAT lemmas in core; 85 redundant literals in core lemmas
s VERIFIED
c verification time: 1.277 seconds
